files/upTests/_functions/setsOfFuncMinSize2/0001.eprime
language ESSENCE' 1.0

find fs_Explicit_ExplicitVarSize_tuple1:
        matrix indexed by [int(1..2), int(1..4)] of bool
find fs_Explicit_ExplicitVarSize_tuple2_Matrix1D:
        matrix indexed by [int(1..2), int(1..4), int(1..2)] of int(-1, 1)
such that
    fs_Explicit_ExplicitVarSize_tuple1[1, 1]
    +
    (fs_Explicit_ExplicitVarSize_tuple1[1, 2]
     +
     (fs_Explicit_ExplicitVarSize_tuple1[1, 3]
      +
      fs_Explicit_ExplicitVarSize_tuple1[1, 4]))
    >=
    1,
    fs_Explicit_ExplicitVarSize_tuple1[2, 1]
    +
    (fs_Explicit_ExplicitVarSize_tuple1[2, 2]
     +
     (fs_Explicit_ExplicitVarSize_tuple1[2, 3]
      +
      fs_Explicit_ExplicitVarSize_tuple1[2, 4]))
    >=
    1,
    forAll v__0 : int(1..2)
        . (forAll v__1 : int(1..4)
               . fs_Explicit_ExplicitVarSize_tuple1[v__0, v__1]
                 ->
                 fs_Explicit_ExplicitVarSize_tuple2_Matrix1D[v__0, v__1, 1] = -1),
    forAll v__0 : int(1..3)
        . fs_Explicit_ExplicitVarSize_tuple1[1, v__0]
          <=
          fs_Explicit_ExplicitVarSize_tuple1[1, v__0 + 1],
    forAll v__0 : int(1..3)
        . fs_Explicit_ExplicitVarSize_tuple1[2, v__0]
          <=
          fs_Explicit_ExplicitVarSize_tuple1[2, v__0 + 1],
    forAll v__0 : int(1..4)
        . (forAll v__1 : int(1..4)
               . v__0 < v__1 /\ fs_Explicit_ExplicitVarSize_tuple1[1, v__0]
                 /\
                 fs_Explicit_ExplicitVarSize_tuple1[1, v__1]
                 ->
                 !(forAll v__2 : int(1..2)
                       . fs_Explicit_ExplicitVarSize_tuple2_Matrix1D[1, v__0, v__2]
                         =
                         fs_Explicit_ExplicitVarSize_tuple2_Matrix1D[1, v__1, v__2])),
    forAll v__0 : int(1..4)
        . (forAll v__1 : int(1..4)
               . v__0 < v__1 /\ fs_Explicit_ExplicitVarSize_tuple1[2, v__0]
                 /\
                 fs_Explicit_ExplicitVarSize_tuple1[2, v__1]
                 ->
                 !(forAll v__2 : int(1..2)
                       . fs_Explicit_ExplicitVarSize_tuple2_Matrix1D[2, v__0, v__2]
                         =
                         fs_Explicit_ExplicitVarSize_tuple2_Matrix1D[2, v__1, v__2]))
